# Plate Description Version 3
# HALCON Version 12.0 -- 8 5 14:11:3 2015
# Description of the standard calibration plate: ../../320-043
# used for the camera calibration in HALCON
#

# 27 rows x 31 columns
# Width, height of calibration plate [meter]: 0.335484, 0.251692
# Distance between mark centers [meter]: 0.01032

# Number of marks in y-dimension (rows)
r 27

# Number of marks in x-dimension (columns)
c 31

#  offset of coordinate system in z-direction [meter] (optional):
z 0

# rim of the calibration plate (min x, max y, max x, min y) [meter]: 
o -0.167741935483871 0.129118247733654 0.172903225806452 -0.129118247733654 
#  polarity of the marks (light or dark): 
p  light 

#  number of finder pattern marks 
f  5 

#  position of the finder patterns (central mark) x y [index]:
15 13 
6 6 
24 6 
6 20 
24 20 

#calibration marks:  x y radius [meter]

# calibration marks at y = -0.116215 m
-0.1496788887859898 -0.1160803040685856 0.00249656903511581
-0.1393573488152981 -0.1160782667127883 0.002497841094345647
-0.1290299544681736 -0.1160797020348662 0.002494916662073991
-0.1187076038808063 -0.1160838210399839 0.002495945042269673
-0.1083780885200335 -0.1160889575135868 0.00249988993728036
-0.09809460848826887 -0.1160849635639721 0.002497161900604392
-0.08780817199345913 -0.116089895867073 0.002496716999867732
-0.07748010554827972 -0.1160907518322888 0.002497074463297583
-0.06715257568931703 -0.116088864544636 0.002497451605565963
-0.05682661288694663 -0.11609208419873 0.002496787708553432
-0.04650007843120596 -0.1160904773823645 0.002498888373111327
-0.03617655392816153 -0.1160951285079236 0.002497954934216947
-0.02585250256184366 -0.1160921888684911 0.002499527689384787
-0.01552074430109003 -0.1160893591677099 0.002499356085397969
-0.005199017987825912 -0.1160863313775983 0.002499401461375647
0.005126702774050964 -0.1160787619079029 0.002499442362903254
0.01544897626591202 -0.1160726659253906 0.002497505858589831
0.02577413011150028 -0.1160663093943623 0.002500469471512252
0.03601266732762035 -0.1160584033569387 0.002496506787746075
0.04633507299791947 -0.1160544311495584 0.002498620991236677
0.05665359320931736 -0.1160448531853311 0.002497930012728363
0.06697566114970432 -0.1160404032393792 0.00249867528084202
0.07729288588508625 -0.1160332730736848 0.002500421800221941
0.08761020334919052 -0.1160276928812855 0.002499802487252593
0.09792149846820465 -0.116017365509735 0.002498967114636767
0.1082395669570217 -0.1160151400912509 0.002495955676834809
0.1185530783987076 -0.1160090952724799 0.002495842390627829
0.1288707434857828 -0.116007271112103 0.00250054204841957
0.1391965660438584 -0.1160085979383956 0.00250056028063767
0.1495164661582418 -0.1160068318864388 0.002499677064190232
0.1598115775468319 -0.1160136648526549 0.002500180877442278

# calibration marks at y = -0.107275 m
-0.1548340259682677 -0.1071148972650707 0.002499358655865988
-0.1445113450629883 -0.1071152843960392 0.002498953570775786
-0.134192490968853 -0.1071202136531821 0.002496972212662474
-0.1238687845195682 -0.1071243884246004 0.002497512729366358
-0.1135384470050664 -0.1071257570812823 0.002494726084045111
-0.1032148408813754 -0.1071256400357782 0.00249981961354274
-0.09297010961147471 -0.1071293436440218 0.002500001954701094
-0.08264531786234146 -0.1071344526325866 0.002500349296723995
-0.07231369350081553 -0.1071310190759245 0.002497057337191777
-0.06198732083857254 -0.1071342100194677 0.002498518681652833
-0.05165970028904465 -0.1071332393980822 0.002497532349105522
-0.04133664649878483 -0.1071334934114994 0.002502987080325534
-0.03100938521392669 -0.1071310391622235 0.002499645051754297
-0.02068556789909458 -0.1071310046360155 0.002499187277847854
-0.01035932475608775 -0.1071239506498424 0.002500385291185351
-3.435021016514685e-005 -0.1071228016154729 0.002496370807884983
0.01029296372946028 -0.1071191107057027 0.002499816756218072
0.02061326117704633 -0.1071136278593412 0.002498234159434892
0.03090116576813859 -0.1071051529808251 0.002498716700758217
0.04118023638069755 -0.1070964608525778 0.002497761371797704
0.05149957676326299 -0.1070922495103733 0.002496522993568976
0.0618167316053263 -0.1070861845952873 0.002500655950605283
0.07213928698764027 -0.1070805513013748 0.002500171891420933
0.08245833398520328 -0.1070718017579005 0.002499718956549489
0.09277273805692038 -0.1070635017831873 0.002499690810415756
0.1030855014931464 -0.1070613590897968 0.002499158788832989
0.1133993378936577 -0.1070535940464994 0.002496439656160013
0.1237114681569636 -0.107045809556794 0.002496757210804845
0.1340343050996844 -0.1070435595885598 0.002498115317843747
0.1443502185993654 -0.1070447929614002 0.002499709545263243
0.1546784111929977 -0.1070402475725781 0.002501578652288808

# calibration marks at y = -0.0983358 m
-0.1496722668744976 -0.09824048391549317 0.002496399954977329
-0.1393512499510807 -0.09823901141241899 0.002496933443001605
-0.129024400293441 -0.09824633871359495 0.002500446107757061
-0.1187017326219985 -0.09824609995831721 0.00249883294040039
-0.10837467890152 -0.09825234001449471 0.002499187980272972
-0.09809175512580556 -0.09825298631118246 0.002496840839936681
-0.08780403156563857 -0.09825303444484372 0.002498399923814675
-0.07747703422167075 -0.09825526592424769 0.002499787443731821
-0.06715473787341469 -0.09825597240684883 0.002499338643914886
-0.05682201704244434 -0.0982548738112119 0.002501298474828446
-0.04649572776029445 -0.09825300557045133 0.002498322461642618
-0.03617521485030196 -0.09825404257924322 0.002497954006727398
-0.02584644310338468 -0.09825583919988763 0.002500174081142086
-0.01551930233229962 -0.09824828096374065 0.002497905492657151
-0.005193353197106784 -0.09824806585158162 0.002497283619218415
0.005134574249763029 -0.09824533770451829 0.002499891300999689
0.01545527453398101 -0.09824176328672508 0.002498863861501691
0.02578085415593975 -0.09823429774952776 0.002495624102235273
0.03602069011174562 -0.09822971069211114 0.002499157111183317
0.04634154652838702 -0.09821996758763346 0.002500231200204018
0.05666332391701028 -0.09821550941703713 0.002501530837763652
0.06698359309071186 -0.09820945279861153 0.002498695639826258
0.07729927356915799 -0.09820026960204181 0.002498786740482303
0.08761760605529316 -0.09819403646026843 0.002499928984018258
0.09792931527665995 -0.09818768136544723 0.002498438405904566
0.1082477727549444 -0.09818207440764715 0.002498298898219701
0.1185629410109097 -0.09817218948944211 0.002496560472105043
0.1288675421081678 -0.09817431660102109 0.002499156267791545
0.1391932726645364 -0.09817102380585678 0.002496618119687032
0.1495084535934889 -0.09816756879528446 0.002497644489102251
0.1597978099042121 -0.09817001292349396 0.002501526492145118

# calibration marks at y = -0.0893962 m
-0.1548308157158837 -0.08927480725198352 0.002499947648570491
-0.1445079953466351 -0.08927877849647169 0.002496176452009486
-0.1341819896284448 -0.08927847412776681 0.002494875753558896
-0.1238669970451499 -0.08928419031269733 0.002498702187883583
-0.113538223060448 -0.08929074042659184 0.002494496687836426
-0.1032112461303707 -0.08928944771448492 0.002497771613513134
-0.09296825388378283 -0.08929149265516337 0.002500720867844512
-0.08264131217455432 -0.08929223386494788 0.002499674485084628
-0.0723120046625856 -0.08929428523352349 0.002497791770815568
-0.0619842979218599 -0.08929452184009336 0.002498398795698803
-0.05166034786701337 -0.08929954662968528 0.002500417890918251
-0.04133468492762455 -0.08929786298550722 0.002498527972837141
-0.03100678095619397 -0.08929608100299823 0.002499441187254969
-0.0206817714441013 -0.08929391132861557 0.002501251941115812
-0.0103564046218931 -0.0892882780738449 0.00250213356148761
-2.812981522633527e-005 -0.08928721978813302 0.002497269973870655
0.01029612509787019 -0.08928338661811017 0.002500873175710275
0.02062315100181113 -0.08927979179889697 0.002498194165313617
0.03090439407982312 -0.08927226775285162 0.002503059514915941
0.04118735165862423 -0.08926442044757132 0.00250028205420146
0.05150494681891906 -0.08926227572480518 0.002497468788862117
0.06182441221743189 -0.08924889301838582 0.002501865889877579
0.07214365028446408 -0.08924673032054477 0.002500757393973606
0.08246316952511872 -0.08923690914772518 0.00249964948310764
0.0927808619730487 -0.0892360014849037 0.002499403158946132
0.1030881125129721 -0.08922526100570957 0.002502018754311561
0.1134055712472564 -0.08922258692640149 0.002498460858407037
0.1237128752658139 -0.08921694280488804 0.002496738435233096
0.1340312820391575 -0.0892107918176951 0.002496721823546337
0.1443468899396491 -0.08920927510241525 0.002496288830955889
0.1546706815060289 -0.08920667004818554 0.002500305927406176

# calibration marks at y = -0.0804566 m
-0.1496617752348986 -0.08039679230519145 0.002498935588484502
-0.1393440353496473 -0.08040045199085692 0.002499198840735336
-0.1290228812374572 -0.08040621439268855 0.002495095226150834
-0.1186999375977837 -0.08040586461349181 0.002496984568910309
-0.1083730860545394 -0.0804124841120227 0.002500468004314479
-0.0980872594084124 -0.0804114096012004 0.002500810923153409
-0.08780048710275681 -0.08041614163252021 0.002498553356479568
-0.07747614404167408 -0.08041907384851402 0.002501355462622209
-0.06715322434154064 -0.08041932005410454 0.002500685695811276
-0.05682471087672496 -0.08041878394667665 0.002500063924344541
-0.04649296078013565 -0.08042268957290591 0.002498400370797748
-0.03616873990747544 -0.08041834967092004 0.00249910683318612
-0.02584164997601009 -0.08041379389397026 0.002499983850268331
-0.01551414842948603 -0.08041554242712563 0.002500198271869621
-0.005189366749605481 -0.08041577869186449 0.002500424912922235
0.005138434072604789 -0.08040857984324855 0.002501863094904675
0.01546725337832508 -0.08040545918994749 0.002501610077518105
0.02579090512232035 -0.08039520944040901 0.002501092128095521
0.03602476636260686 -0.08039176876089264 0.002498540514390931
0.04634650536709654 -0.080387735172641 0.002498887915165679
0.05667016708468718 -0.0803849286061008 0.002497285254904415
0.06699140128264576 -0.08037461281130062 0.002499234073785259
0.0773061600904639 -0.08037019554787908 0.002497898142965188
0.0876166114781769 -0.08036334536209203 0.00249957934105346
0.09793335315814364 -0.08035575197188925 0.002497612658708132
0.1082473569318581 -0.08034948494649247 0.002497130197423568
0.1185603337523258 -0.08033995926999112 0.002494406240193821
0.1288707386055622 -0.08033938982196583 0.002495500308028498
0.1391896887209802 -0.08033624287688554 0.002497449341683897
0.1495090617440935 -0.08033096618483021 0.002499404840384726
0.1597888821791293 -0.08033307198372379 0.002501882498822996

# calibration marks at y = -0.0715169 m
-0.1548222189584028 -0.07143202701833198 0.002495741515639356
-0.1444965197376754 -0.07143490324231401 0.002502237391873673
-0.1341780887644761 -0.07143644879665766 0.002498986025163077
-0.1238591678983245 -0.071447077946065 0.002500284791637033
-0.1135355549121554 -0.07144997841469214 0.002498591177358527
-0.1032042204797126 -0.07144909964386459 0.002498000403423882
-0.0929640982049595 -0.07145170318499824 0.002501057567107575
-0.0826396269635019 -0.0714512680680879 0.002499805903045487
-0.07231139031925855 -0.07145535805017178 0.002501410040435552
-0.0619814892576291 -0.07145694906234291 0.002500175162650328
-0.05165674389384826 -0.07145709582305032 0.002500072673105245
-0.04133175790291897 -0.07145501549329111 0.002501775307396579
-0.03100480304548271 -0.07145781310564454 0.002500877003783931
-0.02067518199140311 -0.07145438911333348 0.002503565220496701
-0.01035319181594149 -0.07145155574194054 0.00250166051793722
-2.190778336015749e-005 -0.07144892594419312 0.002501872359064188
0.01030383199787048 -0.07144321917692462 0.00250042723833428
0.02062885292127445 -0.07143711561242731 0.002501499329531029
0.03090898202463446 -0.07143802268588863 0.002500661860435077
0.0411937209471142 -0.07142853354199934 0.002498727300857719
0.05151278451534254 -0.07142754757520053 0.002501424658262258
0.06183157071742629 -0.07142020550168994 0.002499670733261582
0.07215075351946208 -0.0714136169960425 0.002497274929817253
0.08247044226448422 -0.07140729060948654 0.002498995189572985
0.09277912812889175 -0.0714003388624081 0.002496130665193541
0.1030935021154212 -0.07139773852192928 0.002498746151708069
0.1134097310369985 -0.07138964457505347 0.002496028557236362
0.1237186565769707 -0.071385018055872 0.002496484536016334
0.1340297590879985 -0.07137986834309842 0.002494717837482241
0.1443484633425073 -0.07137951472067657 0.002499578816646792
0.1546688205930114 -0.07137395752756121 0.002500405850122659

# calibration marks at y = -0.0625773 m
-0.1496589739695153 -0.06246970418950359 0.002498909411777779
-0.1393374594048649 -0.06247720354302919 0.002501063112382513
-0.1290199779046466 -0.06247717076456418 0.002498807247831521
-0.1186895429227306 -0.06248390411796724 0.002500550909204819
-0.1083701585837041 -0.06248276999356948 0.002499793295558955
-0.09808265362028754 -0.06248376749728033 0.002500136964477806
-0.08780049664398761 -0.06249257389120181 0.002498542894473504
-0.07747229905108712 -0.06248894866566676 0.002499539991993833
-0.06714835879005697 -0.06249065790903696 0.002499099509909677
-0.05681742169819486 -0.06249070195495617 0.002498936792661576
-0.04649392310394938 -0.06249319233545331 0.00250592670133935
-0.03616951530391491 -0.06249559573081385 0.002500505370577763
-0.02584139002215733 -0.06249534171232355 0.002499888544972342
-0.01550960826902561 -0.06248998631834166 0.002500388886241285
-0.005185190664522497 -0.06248774801163851 0.002503010995822051
0.005140308561471561 -0.06248258077253467 0.002500464353763615
0.01546644595975797 -0.06248283927546015 0.002499406085343565
0.02579357133721198 -0.06247686425229917 0.002498196792605935
0.03603256479232185 -0.06247529244628816 0.002499305845721012
0.0463505964925216 -0.06246450245701109 0.002499478434842515
0.05667599107671043 -0.06246426724099619 0.002499285335427063
0.06699725259328071 -0.06245768054779472 0.002500332650608157
0.07731475318008826 -0.06245887344503421 0.002503585474409234
0.08762553661507652 -0.06244484548395111 0.002497762303108406
0.09794471392646421 -0.06244311475946351 0.002498657556536114
0.108252081013013 -0.06243617067503716 0.00251246786561012
0.1185605992833379 -0.06243060056908879 0.002496020150123742
0.1288728905187155 -0.06242671690100025 0.00249995269507641
0.1391926077210901 -0.06242648891211389 0.00249785478790374
0.1495108351452252 -0.06242053861351995 0.002498097432820602
0.1597863699512295 -0.06241482848451693 0.002498385173034577

# calibration marks at y = -0.0536377 m
-0.1548125657704119 -0.05358983074638751 0.0024980344466333
-0.1444907571878936 -0.05359324049992191 0.002498557267068616
-0.1341763913193883 -0.05359368743609394 0.002499796693336363
-0.1238538764353306 -0.05360045929500694 0.002498471066789062
-0.1135284021503936 -0.05360386763815721 0.002500115194768194
-0.1032014872190363 -0.05360627026197366 0.002501213688208978
-0.09296214365735062 -0.05360472546578027 0.002502100249160055
-0.08263337777565614 -0.05360872372517854 0.002504314076197938
-0.07230945714081287 -0.05360801146897756 0.002501344091205224
-0.06198096173810466 -0.05361425536583395 0.002498987695805156
-0.05165851073187579 -0.05361284256274638 0.002502927150056112
-0.04132794820218975 -0.05361364929804336 0.002502394902053134
-0.03100282587966044 -0.05361772725818983 0.002504124889676019
-0.02067073318888044 -0.05361329284252277 0.002506218153811433
-0.01034991733107949 -0.0536106463331965 0.002502099790217238
-1.847907119014284e-005 -0.05360304366611852 0.00250349283750465
0.0103120768536319 -0.05360528090037077 0.002500834679506174
0.0206345333051481 -0.05360252327721969 0.002502305474888162
0.03091547776922865 -0.05359661894268927 0.002500379352204537
0.04119531434107043 -0.05359266744105194 0.002498920165988549
0.05151808113867784 -0.05359017886652419 0.002498260562531824
0.0618408187519174 -0.05358466154248864 0.002500872646906493
0.07215640674465458 -0.05357943064656687 0.002500810596836265
0.08247507048641177 -0.05357470713519173 0.002499763910853797
0.09279211787218818 -0.05357262055799632 0.002498889717289647
0.1030996224948584 -0.05357278099377801 0.002498240033243292
0.1134105317556316 -0.05355906629339357 0.002499611374630647
0.1237167565627284 -0.05355579604047706 0.002496917130630603
0.1340374669937749 -0.05355190872421978 0.002497288352744653
0.144349868774162 -0.05355127754059696 0.002497315622796195
0.1546679219501453 -0.05354361313818328 0.002500571592688375

# calibration marks at y = -0.0446981 m
-0.1496493997331233 -0.04462917664320595 0.002496434554419738
-0.1393347542964361 -0.0446309579828142 0.002498729419443165
-0.1290084304994614 -0.04463431270953384 0.002497531261130476
-0.1186874428349745 -0.04463543293976142 0.002499873877586918
-0.1083614570421016 -0.04463981122449671 0.002502162591807924
-0.09808187441204246 -0.04464448312399535 0.002499511496483406
-0.0877959086419164 -0.04464991708904841 0.002498966888521726
-0.0774704202818681 -0.04464524528636526 0.002503901962900539
-0.06714380124889091 -0.04464684990694795 0.002499669603364925
-0.05681519572879739 -0.04464112469695756 0.002502578618887533
-0.04648713795371025 -0.04464663354316961 0.002499488763937808
-0.03616138856961459 -0.04465375302149481 0.002501033323540604
-0.02583356065616662 -0.04464905764901453 0.002503947363358258
-0.01551024890875874 -0.04464896962171259 0.002504122589185098
-0.00517987554942803 -0.0446450111898557 0.002503770896235292
0.005147560995541811 -0.0446472997188553 0.00250080966784802
0.01547433064971911 -0.04463886132241308 0.002501739694790988
0.02580330675039567 -0.0446387623079707 0.002499433143828937
0.0360428555695174 -0.04463708022235831 0.002503262789757833
0.04635981225111537 -0.04463268371534365 0.002500247738435789
0.05668460020435914 -0.04463362407915975 0.002502570798725654
0.06700461125105789 -0.04462377813939961 0.002500335934206297
0.07731769651005106 -0.04462109240903978 0.002501000230725159
0.08763689156342447 -0.04461549859206944 0.002499245938036469
0.09794741597796806 -0.0446092036710519 0.002498388216936152
0.1082567970908636 -0.04460696628508336 0.002496282827636029
0.1185698815411619 -0.04459899062157402 0.002496318972413317
0.1288736549149097 -0.04459858604698756 0.002499952659316787
0.1391937692023811 -0.04459473439562348 0.002498372364601442
0.1495126418996249 -0.04458708707764979 0.002495673413451113
0.1597926659285144 -0.04459107842250264 0.002499626946475459

# calibration marks at y = -0.0357585 m
-0.1548044822154951 -0.03574951343382798 0.002497122682506524
-0.1444868337217407 -0.03575391793672766 0.002496509499358021
-0.1341664087639263 -0.03575650630012778 0.002498507778803171
-0.1238458671154548 -0.03575724349854656 0.002498469445250057
-0.1135199916516741 -0.03575549150242392 0.002500140560773502
-0.1031972782525552 -0.03576885208945724 0.002500382541067494
-0.09295643198122164 -0.03576258202370566 0.002504371273510817
-0.08262923946411351 -0.03576985994667067 0.002500154537809628
-0.0723050325175707 -0.03576795076813055 0.002496424951975029
-0.061974237210806 -0.03576947710713063 0.002501934287702886
-0.05165312770880341 -0.03577100930797522 0.002500482072792566
-0.04132093918059965 -0.03576975469417391 0.002497429024130057
-0.03099578103241453 -0.03576947414464515 0.002497319430124767
-0.02067006327675007 -0.03577063677838659 0.002502899784141107
-0.01033944615881145 -0.0357676457121718 0.002505725534325352
-1.419712139474322e-005 -0.03577039221388244 0.002503026459448009
0.01031958293913575 -0.03576428218152574 0.002501653651090863
0.02064105118351265 -0.03576889243877495 0.002505503343021837
0.03091748776771785 -0.03576238749717969 0.002499321346458643
0.04120725529310194 -0.0357587008712856 0.002505331059844088
0.05152771530063732 -0.0357565228022082 0.002497553550669546
0.06184269249679702 -0.03575123439955572 0.002498508452454068
0.07216569900356115 -0.03574686332269119 0.002499152969847849
0.08247620866331372 -0.03574331018575552 0.002498639994787247
0.0927936940911132 -0.03573900635727065 0.002498034425356122
0.1031046220239433 -0.03573506317775597 0.002499402963436093
0.1134150914784652 -0.03573261821150903 0.002500271302261794
0.1237231739968494 -0.03572560897754835 0.002513634715323124
0.1340391249353154 -0.03572956937230158 0.002495628543820736
0.1443544093682936 -0.03572082284381978 0.002496253001781195
0.1546734117641898 -0.03571483176878029 0.002500684170978255

# calibration marks at y = -0.0268189 m
-0.1496401315573975 -0.02678607223417225 0.00249671095873632
-0.1393280310941531 -0.02679227059183244 0.00249685778485378
-0.1290062304608166 -0.02679307074907586 0.00249767167102445
-0.1186813431694404 -0.02679867359488372 0.002499164974162896
-0.1083587697724849 -0.02680026184983173 0.002500000210881798
-0.09807050055293462 -0.02680244417340764 0.002503015564797788
-0.08779090893648081 -0.02680374283451099 0.002499325548157472
-0.07746377537860033 -0.02680518491244661 0.002503916155566522
-0.0671335401684344 -0.02680719963674738 0.002499712419200986
-0.05680880155923816 -0.02680568675674326 0.002499688789788978
-0.04648317271671344 -0.02680281837521164 0.002501686098177632
-0.03615590250711121 -0.02680750183125139 0.002500503349089487
-0.02583278331227424 -0.02680348123312147 0.002500781445097611
-0.01549814450107555 -0.02680293909195428 0.00250123113291152
-0.005172724595955845 -0.0268056096801388 0.002502722000965411
0.005153160535380397 -0.02680215152075968 0.002501227723372416
0.01547431941317806 -0.02680123074077627 0.002501987344286794
0.02580531427915384 -0.02679846606175488 0.002500132807331175
0.03605046233973201 -0.02680093770487528 0.002500022173495287
0.04636615759510317 -0.02679739465719747 0.002499800686277241
0.05668528328979355 -0.02679406377734079 0.002502373125073449
0.06701042809313072 -0.02679249982519916 0.002498820992702814
0.07732460534828464 -0.02679103145289223 0.002503335010401009
0.08764156514863859 -0.02678266750593967 0.002498875158255174
0.09794950856757369 -0.02678032756937387 0.002497669181636116
0.108264151252832 -0.02678034497043663 0.002496955358194463
0.1185743467265162 -0.02677446826975783 0.002498413838242808
0.12888423758338 -0.02677106622175942 0.00249876876968499
0.1392003925127993 -0.02677116960815728 0.002497912647917303
0.1495133148497389 -0.02675972152989525 0.002497840054197236
0.1597909856993846 -0.0267632577067436 0.00249775983399182

# calibration marks at y = -0.0178792 m
-0.1547968565384051 -0.01790767218365716 0.002498878624675549
-0.1444798462268936 -0.01791111199546346 0.0024994722097999
-0.1341557478257573 -0.01791079323235762 0.002499268799285245
-0.1238358297786725 -0.01791907623441295 0.002498110757387374
-0.1135159029733201 -0.01791847813621435 0.002498008460426361
-0.1031911442145639 -0.01792478379064695 0.002497033492162702
-0.09295090771277988 -0.01792366419521843 0.002501316389285508
-0.08262381766483512 -0.01792465818949445 0.002506025078241669
-0.07229391707587994 -0.01792782500379435 0.002500113560857829
-0.06196819895457759 -0.01792919998081037 0.002501889333314717
-0.05164223981908164 -0.01792820258155369 0.002501635843855247
-0.04131860843968149 -0.01792839387219762 0.002497708342095403
-0.03099155119348818 -0.01792771698046123 0.002501151466798192
-0.02066166007581172 -0.01792744717703433 0.002497652910296907
-0.01034171969046967 -0.01793206453993795 0.002503248153081268
-6.756668023730894e-006 -0.01793025759060781 0.002504656706274483
0.01031585603331756 -0.0179272302992053 0.002503321725200782
0.02064538102995108 -0.01792665218288222 0.002498917591915326
0.03092306734212607 -0.01792648172392304 0.002497410028398918
0.04121127708880435 -0.01792581775717416 0.002502517441240306
0.05153079477497795 -0.01792077521330071 0.002499793547532312
0.06185148237806379 -0.01791426987918209 0.002499602017070713
0.07216993542008486 -0.01791592166346791 0.002496507527055461
0.08248701902409576 -0.01791142677403464 0.002501004128360822
0.09280040057595736 -0.01790939096714466 0.002500237530551541
0.1031087088537131 -0.01790713395924963 0.002497261598408643
0.1134226248358165 -0.01790585395005803 0.002498348756205708
0.1237298422983954 -0.01790193627613766 0.002497776462201812
0.1340458305816269 -0.01789747199647305 0.002497534779523746
0.144365364869642 -0.01789318945874495 0.002497021223857616
0.1546745074730052 -0.01789098589643837 0.002515551037602317

# calibration marks at y = -0.00893962 m
-0.149632649340332 -0.008942146876580726 0.002499827954343411
-0.1393174350711236 -0.008948550854171559 0.002498580530436304
-0.1289933942795347 -0.008955873350017329 0.002499320952389639
-0.1186678131482108 -0.008949938800171033 0.002499709213905056
-0.1083517051440348 -0.008956469607115665 0.002501258516696662
-0.09806554901376167 -0.008957569688650259 0.002499716150431998
-0.08777600398262636 -0.008959092190579474 0.002502466805885915
-0.07745675569803927 -0.008955890858771238 0.002503917692947535
-0.06712985344172553 -0.008960254588291637 0.002503397163915597
-0.05680113189981575 -0.008961319518710315 0.002500654535287031
-0.04648105163407441 -0.008966043541824939 0.002503197661438666
-0.03614741546319123 -0.00896185619766776 0.002502859035256602
-0.02582625477936204 -0.008967948539199194 0.002502420522440167
-0.01549900261817315 -0.008964024749795598 0.002503971151548916
-0.005165191120960955 -0.008964380531104935 0.002500310195615653
0.005157864131342272 -0.008963998336425623 0.00250575913587391
0.0154854855290088 -0.008965855688332499 0.002504141849366437
0.0258121815486026 -0.008965829995226136 0.002500865463298076
0.03605528808155441 -0.008959934406671253 0.002501406957766881
0.0463694635831875 -0.008960522630066133 0.002504901183419356
0.0566960172124196 -0.008957312121614929 0.002499355091980058
0.0670193666579809 -0.008955658635938536 0.00250702276043532
0.07733278473528778 -0.008956692692867614 0.002500895985683502
0.08765322841045409 -0.008955051838897051 0.002501276034151822
0.0979554200317268 -0.008949888515450732 0.002497856077187775
0.1082720272250877 -0.008948029638906176 0.002501630932299053
0.1185804042506635 -0.008939543873844059 0.002497103514057387
0.1288883651791896 -0.00894461506781765 0.002501485560120864
0.1392067764407684 -0.008936779324065601 0.002498633990456115
0.1495256283780636 -0.00893692470366721 0.002495797201766833
0.1598028495060281 -0.008930281862195647 0.002497254313594939

# calibration marks at y = 0 m
-0.1547842644744888 1.967902577473577e-005 0.002500265525442879
-0.1444668325243436 1.789259113696864e-005 0.002498214887636277
-0.1341479042869014 1.282716289599455e-005 0.002499723631717875
-0.1238291262810928 1.289746577513701e-005 0.002500333531767537
-0.1135027590163605 9.078822968317502e-006 0.002502640225825806
-0.1031806834382949 5.208748829354812e-006 0.002503253999218189
-0.09294074970494257 4.547524433492806e-006 0.00250237172251903
-0.08261266033497612 3.906634423604572e-006 0.002505501359946784
-0.07228408835736043 5.431188392885997e-006 0.002500492083087867
-0.06196181520925633 5.80463995474455e-006 0.002506402875893933
-0.05163269317960808 4.047133160858989e-006 0.00250528137211687
-0.04131366631221273 1.045260315932703e-006 0.002501827260876828
-0.03098208103394014 2.958709093830793e-007 0.0025059929034959
-0.0206552278845286 -6.070311261182614e-006 0.002498604498644492
-0.0103285443886137 -4.326478734757761e-007 0.002500996040860602
7.720162458770604e-019 1.371401349115447e-019 0.00250347897848843
0.0103234337129186 -4.121424929403683e-006 0.002500546256613912
0.02065408341700342 -2.270388401370449e-006 0.002498760099120107
0.03093386360543012 2.191164361821259e-006 0.002499273854438174
0.04121517055379516 1.293686409264279e-007 0.002503730488565397
0.05153641927299939 -8.844545670651661e-007 0.002499514036003007
0.06185996023843979 -1.453622652908576e-006 0.00249784189564621
0.07217587078592157 7.39182103856696e-006 0.002504016208247755
0.08249146080542305 2.196518340833924e-006 0.002496993080558598
0.09281132905831108 3.18965469759533e-006 0.002498746525916567
0.1031180019307779 6.846145522161968e-006 0.002499027261284962
0.1134308018110799 1.427867281977554e-005 0.002499024892332562
0.1237385076358631 1.133489930271261e-005 0.002498977057633164
0.1340546944814914 1.761846076033832e-005 0.002498207643892011
0.144370891196641 2.201326704182935e-005 0.002499282165286562
0.154688917735978 1.9679025774734e-005 0.00249722960275854

# calibration marks at y = 0.00893962 m
-0.1496146805062873 0.008894744412631432 0.00249938120921588
-0.1393036052073811 0.008895272958885101 0.002498542965299831
-0.1289815456505568 0.00889377920540849 0.002498766350669525
-0.1186594246011482 0.00889579079872419 0.002502241451416216
-0.1083378074406701 0.008887648557023847 0.002501827503040541
-0.09805298234455549 0.008887533638875724 0.002499551326457121
-0.08776786786773685 0.008886970913387771 0.002499546234547117
-0.07744092571955646 0.008878004232266822 0.002501625267098709
-0.06711987292894234 0.00888315165171007 0.002502103524772642
-0.0567962340370919 0.00887739008096794 0.002504300252216506
-0.04646903022989349 0.00887574851214812 0.002498477070445345
-0.03614298924562388 0.008876006220609283 0.002503381582854825
-0.02582335908182638 0.008872928234496723 0.002501594982055205
-0.01549322674658719 0.008878967890462684 0.002501342033063729
-0.005166677059952893 0.008872308217746937 0.002502926083412346
0.005163498512656416 0.008879545443608361 0.002503391539681123
0.01548616083550778 0.00887567892865839 0.002498746043566473