# Plate Description Version 3
# HALCON Version 13.0 --  Fri Jan 19 14:45:34 2018
# Description of the standard calibration plate
# used for the camera calibration in HALCON
# (generated by create_caltab)
#
#

# 12 rows x 14 columns
# Width, height of calibration plate [meter]: 0.600315, 0.441224
# Distance between mark centers [meter]: 0.03873

# Number of marks in y-dimension (rows)
r 12

# Number of marks in x-dimension (columns)
c 14

# offset of coordinate system in z-dimension [meter] (optional):
z 0

# rim of the calibration plate (min x, max y, max x, min y) [meter]:
o -0.3195225 0.199347737498571 0.2614275 -0.232888901387142

# polarity of the marks (light or dark):
p dark

# number of finder pattern marks:
f 5

# position of the finder patterns (central mark):  x y [index]
7 6
1 1
12 1
1 10
12 10

# calibration marks:  x y radius [meter]

# calibration marks at y = -0.201247 m
-0.27111 -0.201246983331428 0.0096825
-0.23238 -0.201246983331428 0.0096825
-0.19365 -0.201246983331428 0.0096825
-0.15492 -0.201246983331428 0.0096825
-0.11619 -0.201246983331428 0.0096825
-0.07746 -0.201246983331428 0.0096825
-0.03873 -0.201246983331428 0.0096825
0 -0.201246983331428 0.0096825
0.03873 -0.201246983331428 0.0096825
0.07746 -0.201246983331428 0.0096825
0.11619 -0.201246983331428 0.0096825
0.15492 -0.201246983331428 0.0096825
0.19365 -0.201246983331428 0.0096825
0.23238 -0.201246983331428 0.0096825

# calibration marks at y = -0.167706 m
-0.290475 -0.167705819442857 0.0096825
-0.251745 -0.167705819442857 0.0096825
-0.213015 -0.167705819442857 0.0096825
-0.174285 -0.167705819442857 0.0096825
-0.135555 -0.167705819442857 0.0096825
-0.096825 -0.167705819442857 0.0096825
-0.058095 -0.167705819442857 0.0096825
-0.019365 -0.167705819442857 0.0096825
0.019365 -0.167705819442857 0.0096825
0.058095 -0.167705819442857 0.0096825
0.096825 -0.167705819442857 0.0096825
0.135555 -0.167705819442857 0.0096825
0.174285 -0.167705819442857 0.0096825
0.213015 -0.167705819442857 0.0096825

# calibration marks at y = -0.134165 m
-0.27111 -0.134164655554285 0.0096825
-0.23238 -0.134164655554285 0.0096825
-0.19365 -0.134164655554285 0.0096825
-0.15492 -0.134164655554285 0.0096825
-0.11619 -0.134164655554285 0.0096825
-0.07746 -0.134164655554285 0.0096825
-0.03873 -0.134164655554285 0.0096825
0 -0.134164655554285 0.0096825
0.03873 -0.134164655554285 0.0096825
0.07746 -0.134164655554285 0.0096825
0.11619 -0.134164655554285 0.0096825
0.15492 -0.134164655554285 0.0096825
0.19365 -0.134164655554285 0.0096825
0.23238 -0.134164655554285 0.0096825

# calibration marks at y = -0.100623 m
-0.290475 -0.100623491665714 0.0096825
-0.251745 -0.100623491665714 0.0096825
-0.213015 -0.100623491665714 0.0096825
-0.174285 -0.100623491665714 0.0096825
-0.135555 -0.100623491665714 0.0096825
-0.096825 -0.100623491665714 0.0096825
-0.058095 -0.100623491665714 0.0096825
-0.019365 -0.100623491665714 0.0096825
0.019365 -0.100623491665714 0.0096825
0.058095 -0.100623491665714 0.0096825
0.096825 -0.100623491665714 0.0096825
0.135555 -0.100623491665714 0.0096825
0.174285 -0.100623491665714 0.0096825
0.213015 -0.100623491665714 0.0096825

# calibration marks at y = -0.0670823 m
-0.27111 -0.0670823277771426 0.0096825
-0.23238 -0.0670823277771426 0.0096825
-0.19365 -0.0670823277771426 0.0096825
-0.15492 -0.0670823277771426 0.0096825
-0.11619 -0.0670823277771426 0.0096825
-0.07746 -0.0670823277771426 0.0096825
-0.03873 -0.0670823277771426 0.0096825
0 -0.0670823277771426 0.0096825
0.03873 -0.0670823277771426 0.0096825
0.07746 -0.0670823277771426 0.0096825
0.11619 -0.0670823277771426 0.0096825
0.15492 -0.0670823277771426 0.0096825
0.19365 -0.0670823277771426 0.0096825
0.23238 -0.0670823277771426 0.0096825

# calibration marks at y = -0.0335412 m
-0.290475 -0.0335411638885713 0.0096825
-0.251745 -0.0335411638885713 0.0096825
-0.213015 -0.0335411638885713 0.0096825
-0.174285 -0.0335411638885713 0.0096825
-0.135555 -0.0335411638885713 0.0096825
-0.096825 -0.0335411638885713 0.0096825
-0.058095 -0.0335411638885713 0.0096825
-0.019365 -0.0335411638885713 0.0096825
0.019365 -0.0335411638885713 0.0096825
0.058095 -0.0335411638885713 0.0096825
0.096825 -0.0335411638885713 0.0096825
0.135555 -0.0335411638885713 0.0096825
0.174285 -0.0335411638885713 0.0096825
0.213015 -0.0335411638885713 0.0096825

# calibration marks at y = 0 m
-0.27111 0 0.0096825
-0.23238 0 0.0096825
-0.19365 0 0.0096825
-0.15492 0 0.0096825
-0.11619 0 0.0096825
-0.07746 0 0.0096825
-0.03873 0 0.0096825
0 0 0.0096825
0.03873 0 0.0096825
0.07746 0 0.0096825
0.11619 0 0.0096825
0.15492 0 0.0096825
0.19365 0 0.0096825
0.23238 0 0.0096825

# calibration marks at y = 0.0335412 m
-0.290475 0.0335411638885713 0.0096825
-0.251745 0.0335411638885713 0.0096825
-0.213015 0.0335411638885713 0.0096825
-0.174285 0.0335411638885713 0.0096825
-0.135555 0.0335411638885713 0.0096825
-0.096825 0.0335411638885713 0.0096825
-0.058095 0.0335411638885713 0.0096825
-0.019365 0.0335411638885713 0.0096825
0.019365 0.0335411638885713 0.0096825
0.058095 0.0335411638885713 0.0096825
0.096825 0.0335411638885713 0.0096825
0.135555 0.0335411638885713 0.0096825
0.174285 0.0335411638885713 0.0096825
0.213015 0.0335411638885713 0.0096825

# calibration marks at y = 0.0670823 m
-0.27111 0.0670823277771426 0.0096825
-0.23238 0.0670823277771426 0.0096825
-0.19365 0.0670823277771426 0.0096825
-0.15492 0.0670823277771426 0.0096825
-0.11619 0.0670823277771426 0.0096825
-0.07746 0.0670823277771426 0.0096825
-0.03873 0.0670823277771426 0.0096825
0 0.0670823277771426 0.0096825
0.03873 0.0670823277771426 0.0096825
0.07746 0.0670823277771426 0.0096825
0.11619 0.0670823277771426 0.0096825
0.15492 0.0670823277771426 0.0096825
0.19365 0.0670823277771426 0.0096825
0.23238 0.0670823277771426 0.0096825

# calibration marks at y = 0.100623 m
-0.290475 0.100623491665714 0.0096825
-0.251745 0.100623491665714 0.0096825
-0.213015 0.100623491665714 0.0096825
-0.174285 0.100623491665714 0.0096825
-0.135555 0.100623491665714 0.0096825
-0.096825 0.100623491665714 0.0096825
-0.058095 0.100623491665714 0.0096825
-0.019365 0.100623491665714 0.0096825
0.019365 0.100623491665714 0.0096825
0.058095 0.100623491665714 0.0096825
0.096825 0.100623491665714 0.0096825
0.135555 0.100623491665714 0.0096825
0.174285 0.100623491665714 0.0096825
0.213015 0.100623491665714 0.0096825

# calibration marks at y = 0.134165 m
-0.27111 0.134164655554285 0.0096825
-0.23238 0.134164655554285 0.0096825
-0.19365 0.134164655554285 0.0096825
-0.15492 0.134164655554285 0.0096825
-0.11619 0.134164655554285 0.0096825
-0.07746 0.134164655554285 0.0096825
-0.03873 0.134164655554285 0.0096825
0 0.134164655554285 0.0096825
0.03873 0.134164655554285 0.0096825
0.07746 0.134164655554285 0.0096825
0.11619 0.134164655554285 0.0096825
0.15492 0.134164655554285 0.0096825
0.19365 0.134164655554285 0.0096825
0.23238 0.134164655554285 0.0096825

# calibration marks at y = 0.167706 m
-0.290475 0.167705819442857 0.0096825
-0.251745 0.167705819442857 0.0096825
-0.213015 0.167705819442857 0.0096825
-0.174285 0.167705819442857 0.0096825
-0.135555 0.167705819442857 0.0096825
-0.096825 0.167705819442857 0.0096825
-0.058095 0.167705819442857 0.0096825
-0.019365 0.167705819442857 0.0096825
0.019365 0.167705819442857 0.0096825
0.058095 0.167705819442857 0.0096825
0.096825 0.167705819442857 0.0096825
0.135555 0.167705819442857 0.0096825
0.174285 0.167705819442857 0.0096825
0.213015 0.167705819442857 0.0096825
