# Plate Description Version 3
# HALCON Version 13.0 --  Fri Jan 12 14:25:12 2018
# Description of the standard calibration plate
# used for the camera calibration in HALCON
# (generated by create_caltab)
#
#

# 8 rows x 10 columns
# Width, height of calibration plate [meter]: 0.64193, 0.442552
# Distance between mark centers [meter]: 0.05582

# Number of marks in y-dimension (rows)
r 8

# Number of marks in x-dimension (columns)
c 10

# offset of coordinate system in z-dimension [meter] (optional):
z 0

# rim of the calibration plate (min x, max y, max x, min y) [meter]:
o -0.320965 0.238970383137366 0.293055 -0.190628845098118

# polarity of the marks (light or dark):
p dark

# number of finder pattern marks:
f 1

# position of the finder patterns (central mark):  x y [index]
5 3

# calibration marks:  x y radius [meter]

# calibration marks at y = -0.145025 m
-0.25119 -0.145024614117742 0.013955
-0.19537 -0.145024614117742 0.013955
-0.13955 -0.145024614117742 0.013955
-0.08373 -0.145024614117742 0.013955
-0.02791 -0.145024614117742 0.013955
0.02791 -0.145024614117742 0.013955
0.08373 -0.145024614117742 0.013955
0.13955 -0.145024614117742 0.013955
0.19537 -0.145024614117742 0.013955
0.25119 -0.145024614117742 0.013955

# calibration marks at y = -0.0966831 m
-0.2791 -0.0966830760784947 0.013955
-0.22328 -0.0966830760784947 0.013955
-0.16746 -0.0966830760784947 0.013955
-0.11164 -0.0966830760784947 0.013955
-0.05582 -0.0966830760784947 0.013955
0 -0.0966830760784947 0.013955
0.05582 -0.0966830760784947 0.013955
0.11164 -0.0966830760784947 0.013955
0.16746 -0.0966830760784947 0.013955
0.22328 -0.0966830760784947 0.013955

# calibration marks at y = -0.0483415 m
-0.25119 -0.0483415380392474 0.013955
-0.19537 -0.0483415380392474 0.013955
-0.13955 -0.0483415380392474 0.013955
-0.08373 -0.0483415380392474 0.013955
-0.02791 -0.0483415380392474 0.013955
0.02791 -0.0483415380392474 0.013955
0.08373 -0.0483415380392474 0.013955
0.13955 -0.0483415380392474 0.013955
0.19537 -0.0483415380392474 0.013955
0.25119 -0.0483415380392474 0.013955

# calibration marks at y = 0 m
-0.2791 0 0.013955
-0.22328 0 0.013955
-0.16746 0 0.013955
-0.11164 0 0.013955
-0.05582 0 0.013955
0 0 0.013955
0.05582 0 0.013955
0.11164 0 0.013955
0.16746 0 0.013955
0.22328 0 0.013955

# calibration marks at y = 0.0483415 m
-0.25119 0.0483415380392474 0.013955
-0.19537 0.0483415380392474 0.013955
-0.13955 0.0483415380392474 0.013955
-0.08373 0.0483415380392474 0.013955
-0.02791 0.0483415380392474 0.013955
0.02791 0.0483415380392474 0.013955
0.08373 0.0483415380392474 0.013955
0.13955 0.0483415380392474 0.013955
0.19537 0.0483415380392474 0.013955
0.25119 0.0483415380392474 0.013955

# calibration marks at y = 0.0966831 m
-0.2791 0.0966830760784947 0.013955
-0.22328 0.0966830760784947 0.013955
-0.16746 0.0966830760784947 0.013955
-0.11164 0.0966830760784947 0.013955
-0.05582 0.0966830760784947 0.013955
0 0.0966830760784947 0.013955
0.05582 0.0966830760784947 0.013955
0.11164 0.0966830760784947 0.013955
0.16746 0.0966830760784947 0.013955
0.22328 0.0966830760784947 0.013955

# calibration marks at y = 0.145025 m
-0.25119 0.145024614117742 0.013955
-0.19537 0.145024614117742 0.013955
-0.13955 0.145024614117742 0.013955
-0.08373 0.145024614117742 0.013955
-0.02791 0.145024614117742 0.013955
0.02791 0.145024614117742 0.013955
0.08373 0.145024614117742 0.013955
0.13955 0.145024614117742 0.013955
0.19537 0.145024614117742 0.013955
0.25119 0.145024614117742 0.013955

# calibration marks at y = 0.193366 m
-0.2791 0.193366152156989 0.013955
-0.22328 0.193366152156989 0.013955
-0.16746 0.193366152156989 0.013955
-0.11164 0.193366152156989 0.013955
-0.05582 0.193366152156989 0.013955
0 0.193366152156989 0.013955
0.05582 0.193366152156989 0.013955
0.11164 0.193366152156989 0.013955
0.16746 0.193366152156989 0.013955
0.22328 0.193366152156989 0.013955
